TCS_Benchmarks/redos_fix/snort4_output_distinct_127_126_0_0.smt2
(set-logic QF_S)
(declare-const x String)
(assert (str.in.re x (re.inter  (re.++ (re.* (re.comp  (str.to.re "\u{3e}")) ) (re.+ (re.comp  (str.to.re "\u{26}")) ))  (re.++ (re.* (re.comp  (str.to.re "\u{3e}")) ) (re.++  (re.++  (str.to.re "\u{26}") (re.++  (re.union  (str.to.re "\u{6d}")  (str.to.re "\u{4d}")) (re.++  (re.union  (str.to.re "\u{6f}")  (str.to.re "\u{4f}")) (re.++  (re.union  (str.to.re "\u{64}")  (str.to.re "\u{44}")) (re.++  (re.union  (str.to.re "\u{75}")  (str.to.re "\u{55}")) (re.++  (re.union  (str.to.re "\u{6c}")  (str.to.re "\u{4c}")) (re.++  (re.union  (str.to.re "\u{65}")  (str.to.re "\u{45}"))  (str.to.re "\u{3d}")))))))) (re.+ (re.comp  (str.to.re "\u{26}")) ))) )))
(check-sat)
(get-model)