TCS_Benchmarks/redos_fix/snort4_output_distinct_127_126_0_0.txt
([^>]*)([^&]+)
([^>]*)(&[mM][oO][dD][uU][lL][eE]=)([^&]+)